NAME          
ROWS
 N  OBJ
 L  c1
 L  c2
 L  c3
 L  c4
 L  c5
COLUMNS
    MARKER    'MARKER'                 'INTORG'
    x[1]      c1        34
    x[1]      c2        864
    x[1]      c3        951
    x[1]      c4        867
    x[1]      c5        736
    x[1]      OBJ       -951
    x[2]      c1        271
    x[2]      c2        257
    x[2]      c3        607
    x[2]      c4        294
    x[2]      c5        284
    x[2]      OBJ       -534
    x[3]      c1        697
    x[3]      c2        83
    x[3]      c3        437
    x[3]      c4        96
    x[3]      c5        994
    x[3]      OBJ       -729
    x[4]      c1        138
    x[4]      c2        8
    x[4]      c3        537
    x[4]      c4        615
    x[4]      c5        375
    x[4]      OBJ       -144
    x[5]      c1        286
    x[5]      c2        339
    x[5]      c3        118
    x[5]      c4        536
    x[5]      c5        287
    x[5]      OBJ       -833
    x[6]      c1        906
    x[6]      c2        70
    x[6]      c3        855
    x[6]      c4        120
    x[6]      c5        19
    x[6]      OBJ       -894
    x[7]      c1        916
    x[7]      c2        914
    x[7]      c3        711
    x[7]      c4        817
    x[7]      c5        964
    x[7]      OBJ       -911
    x[8]      c1        206
    x[8]      c2        642
    x[8]      c3        40
    x[8]      c4        202
    x[8]      c5        391
    x[8]      OBJ       -25
    x[9]      c1        178
    x[9]      c2        241
    x[9]      c3        498
    x[9]      c4        143
    x[9]      c5        540
    x[9]      OBJ       -538
    x[10]     c1        390
    x[10]     c2        176
    x[10]     c3        355
    x[10]     c4        135
    x[10]     c5        103
    x[10]     OBJ       -450
    x[11]     c1        576
    x[11]     c2        275
    x[11]     c3        817
    x[11]     c4        589
    x[11]     c5        379
    x[11]     OBJ       -692
    x[12]     c1        965
    x[12]     c2        835
    x[12]     c3        315
    x[12]     c4        33
    x[12]     c5        243
    x[12]     OBJ       -252
    x[13]     c1        492
    x[13]     c2        579
    x[13]     c3        635
    x[13]     c4        794
    x[13]     c5        761
    x[13]     OBJ       -550
    x[14]     c1        854
    x[14]     c2        883
    x[14]     c3        868
    x[14]     c4        124
    x[14]     c5        595
    x[14]     OBJ       -290
    x[15]     c1        398
    x[15]     c2        47
    x[15]     c3        536
    x[15]     c4        25
    x[15]     c5        378
    x[15]     OBJ       -406
    x[16]     c1        142
    x[16]     c2        550
    x[16]     c3        450
    x[16]     c4        936
    x[16]     c5        408
    x[16]     OBJ       -321
    x[17]     c1        926
    x[17]     c2        914
    x[17]     c3        762
    x[17]     c4        703
    x[17]     c5        479
    x[17]     OBJ       -120
    x[18]     c1        792
    x[18]     c2        316
    x[18]     c3        422
    x[18]     c4        67
    x[18]     c5        696
    x[18]     OBJ       -688
    x[19]     c1        320
    x[19]     c2        111
    x[19]     c3        29
    x[19]     c4        528
    x[19]     c5        990
    x[19]     OBJ       -904
    x[20]     c1        887
    x[20]     c2        20
    x[20]     c3        980
    x[20]     c4        671
    x[20]     c5        849
    x[20]     OBJ       -100
    x[21]     c1        725
    x[21]     c2        331
    x[21]     c3        354
    x[21]     c4        256
    x[21]     c5        813
    x[21]     OBJ       -517
    x[22]     c1        275
    x[22]     c2        992
    x[22]     c3        898
    x[22]     c4        569
    x[22]     c5        228
    x[22]     OBJ       -122
    x[23]     c1        256
    x[23]     c2        416
    x[23]     c3        179
    x[23]     c4        596
    x[23]     c5        784
    x[23]     OBJ       -476
    x[24]     c1        905
    x[24]     c2        863
    x[24]     c3        548
    x[24]     c4        136
    x[24]     c5        815
    x[24]     OBJ       -489
    x[25]     c1        155
    x[25]     c2        178
    x[25]     c3        192
    x[25]     c4        873
    x[25]     c5        179
    x[25]     OBJ       -569
    x[26]     c1        624
    x[26]     c2        47
    x[26]     c3        15
    x[26]     c4        885
    x[26]     c5        280
    x[26]     OBJ       -539
    x[27]     c1        754
    x[27]     c2        412
    x[27]     c3        995
    x[27]     c4        40
    x[27]     c5        154
    x[27]     OBJ       -916
    x[28]     c1        278
    x[28]     c2        674
    x[28]     c3        907
    x[28]     c4        284
    x[28]     c5        361
    x[28]     OBJ       -479
    x[29]     c1        41
    x[29]     c2        980
    x[29]     c3        118
    x[29]     c4        568
    x[29]     c5        254
    x[29]     OBJ       -359
    x[30]     c1        644
    x[30]     c2        697
    x[30]     c3        584
    x[30]     c4        350
    x[30]     c5        158
    x[30]     OBJ       -986
    x[31]     c1        222
    x[31]     c2        940
    x[31]     c3        287
    x[31]     c4        933
    x[31]     c5        555
    x[31]     OBJ       -373
    x[32]     c1        839
    x[32]     c2        346
    x[32]     c3        466
    x[32]     c4        205
    x[32]     c5        581
    x[32]     OBJ       -758
    x[33]     c1        260
    x[33]     c2        480
    x[33]     c3        263
    x[33]     c4        761
    x[33]     c5        872
    x[33]     OBJ       -165
    x[34]     c1        596
    x[34]     c2        943
    x[34]     c3        419
    x[34]     c4        259
    x[34]     c5        424
    x[34]     OBJ       -97
    x[35]     c1        399
    x[35]     c2        774
    x[35]     c3        782
    x[35]     c4        444
    x[35]     c5        834
    x[35]     OBJ       -211
    x[36]     c1        197
    x[36]     c2        196
    x[36]     c3        183
    x[36]     c4        762
    x[36]     c5        193
    x[36]     OBJ       -405
    x[37]     c1        839
    x[37]     c2        505
    x[37]     c3        429
    x[37]     c4        110
    x[37]     c5        760
    x[37]     OBJ       -98
    x[38]     c1        402
    x[38]     c2        599
    x[38]     c3        128
    x[38]     c4        97
    x[38]     c5        941
    x[38]     OBJ       -52
    x[39]     c1        771
    x[39]     c2        455
    x[39]     c3        69
    x[39]     c4        273
    x[39]     c5        604
    x[39]     OBJ       -59
    x[40]     c1        368
    x[40]     c2        933
    x[40]     c3        626
    x[40]     c4        461
    x[40]     c5        757
    x[40]     OBJ       -123
    x[41]     c1        248
    x[41]     c2        678
    x[41]     c3        486
    x[41]     c4        525
    x[41]     c5        340
    x[41]     OBJ       -242
    x[42]     c1        348
    x[42]     c2        979
    x[42]     c3        817
    x[42]     c4        525
    x[42]     c5        768
    x[42]     OBJ       -459
    x[43]     c1        288
    x[43]     c2        488
    x[43]     c3        998
    x[43]     c4        152
    x[43]     c5        334
    x[43]     OBJ       -720
    x[44]     c1        154
    x[44]     c2        11
    x[44]     c3        619
    x[44]     c4        530
    x[44]     c5        714
    x[44]     OBJ       -138
    x[45]     c1        970
    x[45]     c2        91
    x[45]     c3        896
    x[45]     c4        66
    x[45]     c5        651
    x[45]     OBJ       -79
RHS
    rhs       c1        10966
    rhs       c2        11066
    rhs       c3        11590
    rhs       c4        9478
    rhs       c5        11912
RANGES
BOUNDS
 BV bounds    x[1]
 BV bounds    x[2]
 BV bounds    x[3]
 BV bounds    x[4]
 BV bounds    x[5]
 BV bounds    x[6]
 BV bounds    x[7]
 BV bounds    x[8]
 BV bounds    x[9]
 BV bounds    x[10]
 BV bounds    x[11]
 BV bounds    x[12]
 BV bounds    x[13]
 BV bounds    x[14]
 BV bounds    x[15]
 BV bounds    x[16]
 BV bounds    x[17]
 BV bounds    x[18]
 BV bounds    x[19]
 BV bounds    x[20]
 BV bounds    x[21]
 BV bounds    x[22]
 BV bounds    x[23]
 BV bounds    x[24]
 BV bounds    x[25]
 BV bounds    x[26]
 BV bounds    x[27]
 BV bounds    x[28]
 BV bounds    x[29]
 BV bounds    x[30]
 BV bounds    x[31]
 BV bounds    x[32]
 BV bounds    x[33]
 BV bounds    x[34]
 BV bounds    x[35]
 BV bounds    x[36]
 BV bounds    x[37]
 BV bounds    x[38]
 BV bounds    x[39]
 BV bounds    x[40]
 BV bounds    x[41]
 BV bounds    x[42]
 BV bounds    x[43]
 BV bounds    x[44]
 BV bounds    x[45]
ENDATA
